NAME          
ROWS
 N  OBJ
 L  c1
 L  c2
COLUMNS
    MARKER    'MARKER'                 'INTORG'
    x[1]      c1        451
    x[1]      c2        665
    x[1]      OBJ       -551
    x[2]      c1        215
    x[2]      c2        154
    x[2]      OBJ       -837
    x[3]      c1        94
    x[3]      c2        663
    x[3]      OBJ       -119
    x[4]      c1        745
    x[4]      c2        564
    x[4]      OBJ       -1000
    x[5]      c1        896
    x[5]      c2        51
    x[5]      OBJ       -658
    x[6]      c1        74
    x[6]      c2        788
    x[6]      OBJ       -31
    x[7]      c1        912
    x[7]      c2        962
    x[7]      OBJ       -212
    x[8]      c1        714
    x[8]      c2        893
    x[8]      OBJ       -781
    x[9]      c1        440
    x[9]      c2        783
    x[9]      OBJ       -187
    x[10]     c1        399
    x[10]     c2        841
    x[10]     OBJ       -705
    x[11]     c1        43
    x[11]     c2        746
    x[11]     OBJ       -899
    x[12]     c1        169
    x[12]     c2        104
    x[12]     OBJ       -7
    x[13]     c1        307
    x[13]     c2        412
    x[13]     OBJ       -253
    x[14]     c1        493
    x[14]     c2        954
    x[14]     OBJ       -118
    x[15]     c1        997
    x[15]     c2        343
    x[15]     OBJ       -543
RHS
    rhs       c1        3474
    rhs       c2        4462
RANGES
BOUNDS
 LO bounds    x[1]      0
 PL bounds    x[1]
 LO bounds    x[2]      0
 PL bounds    x[2]
 LO bounds    x[3]      0
 PL bounds    x[3]
 LO bounds    x[4]      0
 PL bounds    x[4]
 LO bounds    x[5]      0
 PL bounds    x[5]
 LO bounds    x[6]      0
 PL bounds    x[6]
 LO bounds    x[7]      0
 PL bounds    x[7]
 LO bounds    x[8]      0
 PL bounds    x[8]
 LO bounds    x[9]      0
 PL bounds    x[9]
 LO bounds    x[10]     0
 PL bounds    x[10]
 LO bounds    x[11]     0
 PL bounds    x[11]
 LO bounds    x[12]     0
 PL bounds    x[12]
 LO bounds    x[13]     0
 PL bounds    x[13]
 LO bounds    x[14]     0
 PL bounds    x[14]
 LO bounds    x[15]     0
 PL bounds    x[15]
ENDATA
